SAT
-35 100 -16 37 -70 -46 65 -91 64 -62 -86 79 -14 -12 -38 34 48 31 -61 -15 29 92 71 -5 78 8 18 41 25 -22 23 88 27 -33 -43 -51 40 36 55 53 -75 -45 -17 2 9 89 54 -93 13 -4 63 90 -26 -56 21 20 95 50 -44 -84 10 74 -49 85 69 -3 11 -7 24 6 -32 66 -83 82 73 52 -98 96 -94 -59 -97 -67 30 1 77 81 -57 -80 -28 -19 58 -60 68 76 -47 72 -42 -99 39 -87 0
